GraphSAGE_solutions/GraphSAGE_16_2_mol_len_4.sol
# Solution for model GNN
# Objective value = 2.1658410628243567e+00
A[0,0] 1
A[0,1] 1
A[0,2] 1
A[0,3] 1
A[1,0] 1
A[1,1] 1
A[1,2] 1
A[1,3] 1
A[2,0] 1
A[2,1] 1
A[2,2] 1
A[2,3] 1
A[3,0] 1
A[3,1] 1
A[3,2] 1
A[3,3] 1
x[0,0] 1
x[0,1] 0
x[0,2] 0
x[0,3] 0
x[0,4] 0
x[0,5] 0
x[0,6] 0
x[0,7] 1
x[0,8] 0
x[0,9] 0
x[0,10] 1
x[0,11] 0
x[0,12] 0
x[0,13] 0
x[1,0] 1
x[1,1] 0
x[1,2] 0
x[1,3] 0
x[1,4] 0
x[1,5] 0
x[1,6] 0
x[1,7] 1
x[1,8] 0
x[1,9] 0
x[1,10] 1
x[1,11] 0
x[1,12] 0
x[1,13] 0
x[2,0] 1
x[2,1] 0
x[2,2] 0
x[2,3] 0
x[2,4] 0
x[2,5] 0
x[2,6] 0
x[2,7] 1
x[2,8] 0
x[2,9] 0
x[2,10] 1
x[2,11] 0
x[2,12] 0
x[2,13] 0
x[3,0] 1
x[3,1] 0
x[3,2] 0
x[3,3] 0
x[3,4] 0
x[3,5] 0
x[3,6] 0
x[3,7] 1
x[3,8] 0
x[3,9] 0
x[3,10] 1
x[3,11] 0
x[3,12] 0
x[3,13] 0
h_prime[0,0] 8.2454142476062475e-01
h_prime[0,1] 0
h_prime[0,2] 0
h_prime[0,3] 2.8592830677231795e+00
h_prime[0,4] 0
h_prime[0,5] 0
h_prime[0,6] 2.9280924120858831e-01
h_prime[0,7] 0
h_prime[0,8] 3.0420110874729289e-13
h_prime[0,9] 0
h_prime[0,10] 2.4637890161576037e-01
h_prime[0,11] 0
h_prime[0,12] 0
h_prime[0,13] 6.4030720676615471e-01
h_prime[0,14] 2.8165855802463766e+00
h_prime[0,15] 9.9741402287047587e-02
h_prime[0,16] 2.8461571347061558e+00
h_prime[0,17] 1.5801292665372355e+00
h_prime[0,18] 1.1512611923222060e-01
h_prime[0,19] 0
h_prime[0,20] 3.0160000576729677e+00
h_prime[0,21] 1.6106369919483174e+00
h_prime[0,22] 3.2067191785732091e-01
h_prime[0,23] 0
h_prime[0,24] 0
h_prime[0,25] 0
h_prime[0,26] 1.5544710565120332e-01
h_prime[0,27] 1.2423349975039690e+00
h_prime[0,28] 0
h_prime[0,29] 0
h_prime[0,30] 2.0315442332619256e+00
h_prime[0,31] 0
h_prime[1,0] 8.2454142476022163e-01
h_prime[1,1] 0
h_prime[1,2] 0
h_prime[1,3] 2.8592830677249035e+00
h_prime[1,4] 0
h_prime[1,5] 0
h_prime[1,6] 2.9280924120618923e-01
h_prime[1,7] 0
h_prime[1,8] 0
h_prime[1,9] 0
h_prime[1,10] 2.4637890161641585e-01
h_prime[1,11] 0
h_prime[1,12] 0
h_prime[1,13] 6.4030720675783270e-01
h_prime[1,14] 2.8165855802474380e+00
h_prime[1,15] 9.9741402289120124e-02
h_prime[1,16] 2.8461571347037138e+00
h_prime[1,17] 1.5801292665475142e+00
h_prime[1,18] 1.1512611922969557e-01
h_prime[1,19] 0
h_prime[1,20] 3.0160000576847628e+00
h_prime[1,21] 1.6106369919501324e+00
h_prime[1,22] 3.2067191785701676e-01
h_prime[1,23] 0
h_prime[1,24] 0
h_prime[1,25] 0
h_prime[1,26] 0.155447105653573
h_prime[1,27] 1.2423349975004556e+00
h_prime[1,28] 0
h_prime[1,29] 0
h_prime[1,30] 2.0315442332627835e+00
h_prime[1,31] 0
h_prime[2,0] 8.2454142475426351e-01
h_prime[2,1] 0
h_prime[2,2] 0
h_prime[2,3] 2.8592830677237639e+00
h_prime[2,4] 0
h_prime[2,5] 0
h_prime[2,6] 2.9280924120629392e-01
h_prime[2,7] 0
h_prime[2,8] 2.2700397117603188e-11
h_prime[2,9] 0
h_prime[2,10] 2.4637890161424270e-01
h_prime[2,11] 0
h_prime[2,12] 0
h_prime[2,13] 0.640307206772771
h_prime[2,14] 2.8165855802498805e+00
h_prime[2,15] 9.9741402289089925e-02
h_prime[2,16] 2.8461571347015018e+00
h_prime[2,17] 1.5801292665457178e+00
h_prime[2,18] 1.1512611923003765e-01
h_prime[2,19] 0
h_prime[2,20] 3.0160000576531192e+00
h_prime[2,21] 1.6106369919256267e+00
h_prime[2,22] 3.2067191785715987e-01
h_prime[2,23] 0
h_prime[2,24] 0
h_prime[2,25] 0
h_prime[2,26] 1.5544710565330944e-01
h_prime[2,27] 1.2423349975157896e+00
h_prime[2,28] 0
h_prime[2,29] 0
h_prime[2,30] 2.0315442332393348e+00
h_prime[2,31] 0
h_prime[3,0] 8.2454142476169356e-01
h_prime[3,1] 0
h_prime[3,2] 0
h_prime[3,3] 2.8592830677241903e+00
h_prime[3,4] 0
h_prime[3,5] 0
h_prime[3,6] 2.9280924120626528e-01
h_prime[3,7] 0
h_prime[3,8] 7.1497149934718707e-12
h_prime[3,9] 0
h_prime[3,10] 2.4637890161791767e-01
h_prime[3,11] 0
h_prime[3,12] 0
h_prime[3,13] 0.64030720676072
h_prime[3,14] 2.8165855802517323e+00
h_prime[3,15] 9.9741402289081932e-02
h_prime[3,16] 2.8461571347058947e+00
h_prime[3,17] 1.5801292665385787e+00
h_prime[3,18] 1.1512611922994198e-01
h_prime[3,19] 0
h_prime[3,20] 3.0160000576721955e+00
h_prime[3,21] 1.6106369919447532e+00
h_prime[3,22] 3.2067191785711591e-01
h_prime[3,23] 0
h_prime[3,24] 0
h_prime[3,25] 0
h_prime[3,26] 1.5544710565323461e-01
h_prime[3,27] 1.2423349975050613e+00
h_prime[3,28] 0
h_prime[3,29] 0
h_prime[3,30] 2.0315442332582103e+00
h_prime[3,31] 0
b_init[0,0,0] 1
b_init[0,0,1] 0
b_init[0,0,2] 0
b_init[0,0,3] 0
b_init[0,0,4] 0
b_init[0,0,5] 0
b_init[0,0,6] 0
b_init[0,0,7] 1
b_init[0,0,8] 0
b_init[0,0,9] 0
b_init[0,0,10] 1
b_init[0,0,11] 0
b_init[0,0,12] 0
b_init[0,0,13] 0
b_init[0,1,0] 1
b_init[0,1,1] 0
b_init[0,1,2] 0
b_init[0,1,3] 0
b_init[0,1,4] 0
b_init[0,1,5] 0
b_init[0,1,6] 0
b_init[0,1,7] 1
b_init[0,1,8] 0
b_init[0,1,9] 0
b_init[0,1,10] 1
b_init[0,1,11] 0
b_init[0,1,12] 0
b_init[0,1,13] 0
b_init[0,2,0] 1
b_init[0,2,1] 0
b_init[0,2,2] 0
b_init[0,2,3] 0
b_init[0,2,4] 0
b_init[0,2,5] 0
b_init[0,2,6] 0
b_init[0,2,7] 1
b_init[0,2,8] 0
b_init[0,2,9] 0
b_init[0,2,10] 1
b_init[0,2,11] 0
b_init[0,2,12] 0
b_init[0,2,13] 0
b_init[0,3,0] 1
b_init[0,3,1] 0
b_init[0,3,2] 0
b_init[0,3,3] 0
b_init[0,3,4] 0
b_init[0,3,5] 0
b_init[0,3,6] 0
b_init[0,3,7] 1
b_init[0,3,8] 0
b_init[0,3,9] 0
b_init[0,3,10] 1
b_init[0,3,11] 0
b_init[0,3,12] 0
b_init[0,3,13] 0
b_init[1,0,0] 1
b_init[1,0,1] 0
b_init[1,0,2] 0
b_init[1,0,3] 0
b_init[1,0,4] 0
b_init[1,0,5] 0
b_init[1,0,6] 0
b_init[1,0,7] 1
b_init[1,0,8] 0
b_init[1,0,9] 0
b_init[1,0,10] 1
b_init[1,0,11] 0
b_init[1,0,12] 0
b_init[1,0,13] 0
b_init[1,1,0] 1
b_init[1,1,1] 0
b_init[1,1,2] 0
b_init[1,1,3] 0
b_init[1,1,4] 0
b_init[1,1,5] 0
b_init[1,1,6] 0
b_init[1,1,7] 1
b_init[1,1,8] 0
b_init[1,1,9] 0
b_init[1,1,10] 1
b_init[1,1,11] 0
b_init[1,1,12] 0
b_init[1,1,13] 0
b_init[1,2,0] 1
b_init[1,2,1] 0
b_init[1,2,2] 0
b_init[1,2,3] 0
b_init[1,2,4] 0
b_init[1,2,5] 0
b_init[1,2,6] 0
b_init[1,2,7] 1
b_init[1,2,8] 0
b_init[1,2,9] 0
b_init[1,2,10] 1
b_init[1,2,11] 0
b_init[1,2,12] 0
b_init[1,2,13] 0
b_init[1,3,0] 1
b_init[1,3,1] 0
b_init[1,3,2] 0
b_init[1,3,3] 0
b_init[1,3,4] 0
b_init[1,3,5] 0
b_init[1,3,6] 0
b_init[1,3,7] 1
b_init[1,3,8] 0
b_init[1,3,9] 0
b_init[1,3,10] 1
b_init[1,3,11] 0
b_init[1,3,12] 0
b_init[1,3,13] 0
b_init[2,0,0] 1
b_init[2,0,1] 0
b_init[2,0,2] 0
b_init[2,0,3] 0
b_init[2,0,4] 0
b_init[2,0,5] 0
b_init[2,0,6] 0
b_init[2,0,7] 1
b_init[2,0,8] 0
b_init[2,0,9] 0
b_init[2,0,10] 1
b_init[2,0,11] 0
b_init[2,0,12] 0
b_init[2,0,13] 0
b_init[2,1,0] 1
b_init[2,1,1] 0
b_init[2,1,2] 0
b_init[2,1,3] 0
b_init[2,1,4] 0
b_init[2,1,5] 0
b_init[2,1,6] 0
b_init[2,1,7] 1
b_init[2,1,8] 0
b_init[2,1,9] 0
b_init[2,1,10] 1
b_init[2,1,11] 0
b_init[2,1,12] 0
b_init[2,1,13] 0
b_init[2,2,0] 1
b_init[2,2,1] 0
b_init[2,2,2] 0
b_init[2,2,3] 0
b_init[2,2,4] 0
b_init[2,2,5] 0
b_init[2,2,6] 0
b_init[2,2,7] 1
b_init[2,2,8] 0
b_init[2,2,9] 0
b_init[2,2,10] 1
b_init[2,2,11] 0
b_init[2,2,12] 0
b_init[2,2,13] 0
b_init[2,3,0] 1
b_init[2,3,1] 0
b_init[2,3,2] 0
b_init[2,3,3] 0
b_init[2,3,4] 0
b_init[2,3,5] 0
b_init[2,3,6] 0
b_init[2,3,7] 1
b_init[2,3,8] 0
b_init[2,3,9] 0
b_init[2,3,10] 1
b_init[2,3,11] 0
b_init[2,3,12] 0
b_init[2,3,13] 0
b_init[3,0,0] 1
b_init[3,0,1] 0
b_init[3,0,2] 0
b_init[3,0,3] 0
b_init[3,0,4] 0
b_init[3,0,5] 0
b_init[3,0,6] 0
b_init[3,0,7] 1
b_init[3,0,8] 0
b_init[3,0,9] 0
b_init[3,0,10] 1
b_init[3,0,11] 0
b_init[3,0,12] 0
b_init[3,0,13] 0
b_init[3,1,0] 1
b_init[3,1,1] 0
b_init[3,1,2] 0
b_init[3,1,3] 0
b_init[3,1,4] 0
b_init[3,1,5] 0
b_init[3,1,6] 0
b_init[3,1,7] 1
b_init[3,1,8] 0
b_init[3,1,9] 0
b_init[3,1,10] 1
b_init[3,1,11] 0
b_init[3,1,12] 0
b_init[3,1,13] 0
b_init[3,2,0] 1
b_init[3,2,1] 0
b_init[3,2,2] 0
b_init[3,2,3] 0
b_init[3,2,4] 0
b_init[3,2,5] 0
b_init[3,2,6] 0
b_init[3,2,7] 1
b_init[3,2,8] 0
b_init[3,2,9] 0
b_init[3,2,10] 1
b_init[3,2,11] 0
b_init[3,2,12] 0
b_init[3,2,13] 0
b_init[3,3,0] 1
b_init[3,3,1] 0
b_init[3,3,2] 0
b_init[3,3,3] 0
b_init[3,3,4] 0
b_init[3,3,5] 0
b_init[3,3,6] 0
b_init[3,3,7] 1
b_init[3,3,8] 0
b_init[3,3,9] 0
b_init[3,3,10] 1
b_init[3,3,11] 0
b_init[3,3,12] 0
b_init[3,3,13] 0
x_0_0_0_gc 0
s_0_0_0_gc 3.1992355361575808e-01
z_0_0_0_gc 0
b_0_0_0_gc[0] 0
b_0_0_0_gc[1] 0
b_0_0_0_gc[2] 1.4250149600891757e-11
b_0_0_0_gc[3] 0
x_0_0_1_gc 0
s_0_0_1_gc 1.1784022091887891e+00
z_0_0_1_gc 0
b_0_0_1_gc[0] 0
b_0_0_1_gc[1] 0
b_0_0_1_gc[2] 0
b_0_0_1_gc[3] 0
x_0_0_2_gc 0
s_0_0_2_gc 1.2621785383671522e+00
z_0_0_2_gc 0
b_0_0_2_gc[0] 0
b_0_0_2_gc[1] 0
b_0_0_2_gc[2] 0
b_0_0_2_gc[3] 0
x_0_0_3_gc 0
s_0_0_3_gc 7.3274882510298833e-01
z_0_0_3_gc 0
b_0_0_3_gc[0] 0
b_0_0_3_gc[1] 0
b_0_0_3_gc[2] 0
b_0_0_3_gc[3] 0
x_0_0_4_gc 1.5680191590799950e+00
s_0_0_4_gc 0
z_0_0_4_gc 1
b_0_0_4_gc[0] 1.5680191590799950e+00
b_0_0_4_gc[1] 1.5680191590800314e+00
b_0_0_4_gc[2] 1.5680191590799528e+00
b_0_0_4_gc[3] 1.5680191590800232e+00
x_0_0_5_gc 0
s_0_0_5_gc 4.2643789201974869e-03
z_0_0_5_gc 0
b_0_0_5_gc[0] 0
b_0_0_5_gc[1] 0
b_0_0_5_gc[2] 0
b_0_0_5_gc[3] 0
x_0_0_6_gc 9.6636696113273524e-01
s_0_0_6_gc 0
z_0_0_6_gc 1
b_0_0_6_gc[0] 9.6636696113273524e-01
b_0_0_6_gc[1] 9.6636696113274578e-01
b_0_0_6_gc[2] 9.6636696113269482e-01
b_0_0_6_gc[3] 9.6636696113276832e-01
x_0_0_7_gc 2.0498969405889511e-01
s_0_0_7_gc 0
z_0_0_7_gc 1
b_0_0_7_gc[0] 2.0498969405889511e-01
b_0_0_7_gc[1] 2.0498969405890230e-01
b_0_0_7_gc[2] 2.0498969405885256e-01
b_0_0_7_gc[3] 2.0498969406413417e-01
x_0_0_8_gc 1.3835638817399345e+00
s_0_0_8_gc 0
z_0_0_8_gc 1
b_0_0_8_gc[0] 1.3835638817399345e+00
b_0_0_8_gc[1] 1.3835638817400295e+00
b_0_0_8_gc[2] 1.3835638817401050e+00
b_0_0_8_gc[3] 1.3835638817399298e+00
x_0_0_9_gc 0.205865710973685
s_0_0_9_gc 0
z_0_0_9_gc 1
b_0_0_9_gc[0] 0.205865710973685
b_0_0_9_gc[1] 2.0586571097370043e-01
b_0_0_9_gc[2] 2.0586571097370010e-01
b_0_0_9_gc[3] 2.0586571097369921e-01
x_0_0_10_gc 0
s_0_0_10_gc 4.0088875588059258e-01
z_0_0_10_gc 0
b_0_0_10_gc[0] 0
b_0_0_10_gc[1] 0
b_0_0_10_gc[2] 0
b_0_0_10_gc[3] 0
x_0_0_11_gc 0
s_0_0_11_gc 2.4594732671976089e+00
z_0_0_11_gc 0
b_0_0_11_gc[0] 0
b_0_0_11_gc[1] 0
b_0_0_11_gc[2] 0
b_0_0_11_gc[3] 0
x_0_0_12_gc 1.3125948328524828e+00
s_0_0_12_gc 0
z_0_0_12_gc 1
b_0_0_12_gc[0] 1.3125948328524828e+00
b_0_0_12_gc[1] 1.31259483285248
b_0_0_12_gc[2] 1.3125948328525130e+00
b_0_0_12_gc[3] 1.3125948328525223e+00
x_0_0_13_gc 1.1341716777532755e+00
s_0_0_13_gc 0
z_0_0_13_gc 1
b_0_0_13_gc[0] 1.1341716777532755e+00
b_0_0_13_gc[1] 1.1341716777533577e+00
b_0_0_13_gc[2] 1.1341716777533253e+00
b_0_0_13_gc[3] 1.1341716777533564e+00
x_0_0_14_gc 0
s_0_0_14_gc 1.2395040970295974e+00
z_0_0_14_gc 0
b_0_0_14_gc[0] 0
b_0_0_14_gc[1] 0
b_0_0_14_gc[2] 0
b_0_0_14_gc[3] 0
x_0_0_15_gc 0
s_0_0_15_gc 3.4668850153680647e-01
z_0_0_15_gc 0
b_0_0_15_gc[0] 0
b_0_0_15_gc[1] 0
b_0_0_15_gc[2] 0
b_0_0_15_gc[3] 0
x_0_1_0_gc 0
s_0_1_0_gc 3.1992355359216640e-01
z_0_1_0_gc 0
b_0_1_0_gc[0] 0
b_0_1_0_gc[1] 0
b_0_1_0_gc[2] 1.4250149600891757e-11
b_0_1_0_gc[3] 0
x_0_1_1_gc 0
s_0_1_1_gc 1.1784022091887896e+00
z_0_1_1_gc 0
b_0_1_1_gc[0] 0
b_0_1_1_gc[1] 0
b_0_1_1_gc[2] 0
b_0_1_1_gc[3] 0
x_0_1_2_gc 0
s_0_1_2_gc 1.2621785383671114e+00
z_0_1_2_gc 0
b_0_1_2_gc[0] 0
b_0_1_2_gc[1] 0
b_0_1_2_gc[2] 0
b_0_1_2_gc[3] 0
x_0_1_3_gc 0
s_0_1_3_gc 7.3274882510300410e-01
z_0_1_3_gc 0
b_0_1_3_gc[0] 0
b_0_1_3_gc[1] 0
b_0_1_3_gc[2] 0
b_0_1_3_gc[3] 0
x_0_1_4_gc 1.5680191590800314e+00
s_0_1_4_gc 0
z_0_1_4_gc 1
b_0_1_4_gc[0] 1.5680191590799950e+00
b_0_1_4_gc[1] 1.5680191590800314e+00
b_0_1_4_gc[2] 1.5680191590799457e+00
b_0_1_4_gc[3] 1.5680191590800230e+00
x_0_1_5_gc 0
s_0_1_5_gc 4.2643789201908255e-03
z_0_1_5_gc 0
b_0_1_5_gc[0] 0
b_0_1_5_gc[1] 0
b_0_1_5_gc[2] 0
b_0_1_5_gc[3] 0
x_0_1_6_gc 9.6636696113274578e-01
s_0_1_6_gc 0
z_0_1_6_gc 1
b_0_1_6_gc[0] 9.6636696113273524e-01
b_0_1_6_gc[1] 9.6636696113274578e-01
b_0_1_6_gc[2] 9.6636696113269482e-01
b_0_1_6_gc[3] 0.966366961132767
x_0_1_7_gc 2.0498969405890230e-01
s_0_1_7_gc 0
z_0_1_7_gc 1
b_0_1_7_gc[0] 2.0498969405889511e-01
b_0_1_7_gc[1] 2.0498969405890230e-01
b_0_1_7_gc[2] 2.0498969405890266e-01
b_0_1_7_gc[3] 0.204989694058894
x_0_1_8_gc 1.3835638817400295e+00
s_0_1_8_gc 0
z_0_1_8_gc 1
b_0_1_8_gc[0] 1.3835638817399345e+00
b_0_1_8_gc[1] 1.3835638817400295e+00
b_0_1_8_gc[2] 1.3835638817401050e+00
b_0_1_8_gc[3] 1.3835638817399758e+00
x_0_1_9_gc 2.0586571097370043e-01
s_0_1_9_gc 0
z_0_1_9_gc 1
b_0_1_9_gc[0] 0.205865710973685
b_0_1_9_gc[1] 2.0586571097370043e-01
b_0_1_9_gc[2] 2.0586571097370010e-01
b_0_1_9_gc[3] 2.0586571097370054e-01
x_0_1_10_gc 0
s_0_1_10_gc 4.0088875591750994e-01
z_0_1_10_gc 0
b_0_1_10_gc[0] 0
b_0_1_10_gc[1] 0
b_0_1_10_gc[2] 9.8969721307184955e-12
b_0_1_10_gc[3] 4.3680497877217861e-11
x_0_1_11_gc 0
s_0_1_11_gc 2.4594732671975588e+00
z_0_1_11_gc 0
b_0_1_11_gc[0] 0
b_0_1_11_gc[1] 0
b_0_1_11_gc[2] 0
b_0_1_11_gc[3] 0
x_0_1_12_gc 1.31259483285248
s_0_1_12_gc 0
z_0_1_12_gc 1
b_0_1_12_gc[0] 1.3125948328524828e+00
b_0_1_12_gc[1] 1.31259483285248
b_0_1_12_gc[2] 1.3125948328525117e+00
b_0_1_12_gc[3] 1.3125948328525208e+00
x_0_1_13_gc 1.1341716777533577e+00
s_0_1_13_gc 0
z_0_1_13_gc 1
b_0_1_13_gc[0] 1.1341716777532755e+00
b_0_1_13_gc[1] 1.1341716777533577e+00
b_0_1_13_gc[2] 1.1341716777533253e+00
b_0_1_13_gc[3] 1.1341716777533311e+00
x_0_1_14_gc 0
s_0_1_14_gc 1.2395040970295346e+00
z_0_1_14_gc 0
b_0_1_14_gc[0] 0
b_0_1_14_gc[1] 0
b_0_1_14_gc[2] 0
b_0_1_14_gc[3] 0
x_0_1_15_gc 0
s_0_1_15_gc 3.4668850153681385e-01
z_0_1_15_gc 0
b_0_1_15_gc[0] 0
b_0_1_15_gc[1] 0
b_0_1_15_gc[2] 0
b_0_1_15_gc[3] 0
x_0_2_0_gc 1.4250149600891757e-11
s_0_2_0_gc 3.1992355363011893e-01
z_0_2_0_gc 0
b_0_2_0_gc[0] 0
b_0_2_0_gc[1] 0
b_0_2_0_gc[2] 1.4250149600891757e-11
b_0_2_0_gc[3] 0
x_0_2_1_gc 0
s_0_2_1_gc 1.1784022091887882e+00
z_0_2_1_gc 0
b_0_2_1_gc[0] 0
b_0_2_1_gc[1] 0
b_0_2_1_gc[2] 0
b_0_2_1_gc[3] 0
x_0_2_2_gc 0
s_0_2_2_gc 1.2621785383670541e+00
z_0_2_2_gc 0
b_0_2_2_gc[0] 0
b_0_2_2_gc[1] 0
b_0_2_2_gc[2] 0
b_0_2_2_gc[3] 0
x_0_2_3_gc 1.0527689831008047e-13
s_0_2_3_gc 7.3274882510301120e-01
z_0_2_3_gc 0
b_0_2_3_gc[0] 0
b_0_2_3_gc[1] 0
b_0_2_3_gc[2] 1.0527689831008047e-13
b_0_2_3_gc[3] 0
x_0_2_4_gc 1.5680191590799528e+00
s_0_2_4_gc 0
z_0_2_4_gc 1
b_0_2_4_gc[0] 1.5680191590799955e+00
b_0_2_4_gc[1] 1.5680191590800336e+00
b_0_2_4_gc[2] 1.5680191590799528e+00
b_0_2_4_gc[3] 1.5680191590800234e+00
x_0_2_5_gc 0
s_0_2_5_gc 4.2643789202152504e-03
z_0_2_5_gc 0
b_0_2_5_gc[0] 0
b_0_2_5_gc[1] 0
b_0_2_5_gc[2] 0
b_0_2_5_gc[3] 0
x_0_2_6_gc 0.966366961099632
s_0_2_6_gc 0
z_0_2_6_gc 1
b_0_2_6_gc[0] 9.6636696113267329e-01
b_0_2_6_gc[1] 0.966366961132783
b_0_2_6_gc[2] 0.966366961099632
b_0_2_6_gc[3] 9.6636696113275056e-01
x_0_2_7_gc 2.0498969405890258e-01
s_0_2_7_gc 0
z_0_2_7_gc 1
b_0_2_7_gc[0] 2.0498969405881251e-01
b_0_2_7_gc[1] 2.0498969405883427e-01
b_0_2_7_gc[2] 2.0498969405890258e-01
b_0_2_7_gc[3] 2.0498969400315881e-01
x_0_2_8_gc 1.3835638817401050e+00
s_0_2_8_gc 1.3300471835009375e-13
z_0_2_8_gc 1
b_0_2_8_gc[0] 1.3835638817399345e+00
b_0_2_8_gc[1] 1.3835638817400295e+00
b_0_2_8_gc[2] 1.3835638817401050e+00
b_0_2_8_gc[3] 1.3835638817399165e+00
x_0_2_9_gc 2.0586571097370010e-01
s_0_2_9_gc 0
z_0_2_9_gc 1
b_0_2_9_gc[0] 2.0586571097368678e-01
b_0_2_9_gc[1] 2.0586571097370043e-01
b_0_2_9_gc[2] 2.0586571097370010e-01
b_0_2_9_gc[3] 2.0586571097369788e-01
x_0_2_10_gc 9.8970990144921318e-12
s_0_2_10_gc 4.0088875592734319e-01
z_0_2_10_gc 0
b_0_2_10_gc[0] 0
b_0_2_10_gc[1] 0
b_0_2_10_gc[2] 9.8970990144921318e-12
b_0_2_10_gc[3] 0
x_0_2_11_gc 0
s_0_2_11_gc 2.4594732671974349e+00
z_0_2_11_gc 0
b_0_2_11_gc[0] 0
b_0_2_11_gc[1] 0
b_0_2_11_gc[2] 0
b_0_2_11_gc[3] 0
x_0_2_12_gc 1.3125948328525117e+00
s_0_2_12_gc 0
z_0_2_12_gc 1
b_0_2_12_gc[0] 1.3125948328524251e+00
b_0_2_12_gc[1] 1.3125948328524282e+00
b_0_2_12_gc[2] 1.3125948328525130e+00
b_0_2_12_gc[3] 1.3125948328524850e+00
x_0_2_13_gc 1.1341716777533253e+00
s_0_2_13_gc 0
z_0_2_13_gc 1
b_0_2_13_gc[0] 1.1341716777532755e+00
b_0_2_13_gc[1] 1.1341716777533577e+00
b_0_2_13_gc[2] 1.1341716777533253e+00
b_0_2_13_gc[3] 1.1341716777533311e+00
x_0_2_14_gc 0
s_0_2_14_gc 1.2395040970262270e+00
z_0_2_14_gc 0
b_0_2_14_gc[0] 0
b_0_2_14_gc[1] 0
b_0_2_14_gc[2] 0
b_0_2_14_gc[3] 0
x_0_2_15_gc 0
s_0_2_15_gc 3.4668850153681507e-01
z_0_2_15_gc 0
b_0_2_15_gc[0] 0
b_0_2_15_gc[1] 0
b_0_2_15_gc[2] 0
b_0_2_15_gc[3] 0
x_0_3_0_gc 0
s_0_3_0_gc 3.1992355361578584e-01
z_0_3_0_gc 0
b_0_3_0_gc[0] 0
b_0_3_0_gc[1] 0
b_0_3_0_gc[2] 1.4249705511681907e-11
b_0_3_0_gc[3] 0
x_0_3_1_gc 0
s_0_3_1_gc 1.17840220918879
z_0_3_1_gc 0
b_0_3_1_gc[0] 0
b_0_3_1_gc[1] 0
b_0_3_1_gc[2] 0
b_0_3_1_gc[3] 0
x_0_3_2_gc 0
s_0_3_2_gc 1.2621785383671540e+00
z_0_3_2_gc 0
b_0_3_2_gc[0] 0
b_0_3_2_gc[1] 0
b_0_3_2_gc[2] 0
b_0_3_2_gc[3] 0
x_0_3_3_gc 0
s_0_3_3_gc 7.3274882510304318e-01
z_0_3_3_gc 0
b_0_3_3_gc[0] 0
b_0_3_3_gc[1] 0
b_0_3_3_gc[2] 0
b_0_3_3_gc[3] 0
x_0_3_4_gc 1.5680191590799972e+00
s_0_3_4_gc 0
z_0_3_4_gc 1
b_0_3_4_gc[0] 1.5680191590849164e+00
b_0_3_4_gc[1] 1.5680191590800314e+00
b_0_3_4_gc[2] 1.5680191590799444e+00
b_0_3_4_gc[3] 1.5680191590799972e+00
x_0_3_5_gc 0
s_0_3_5_gc 4.2643789201952109e-03
z_0_3_5_gc 0
b_0_3_5_gc[0] 0
b_0_3_5_gc[1] 0
b_0_3_5_gc[2] 0
b_0_3_5_gc[3] 0
x_0_3_6_gc 9.6636696113275056e-01
s_0_3_6_gc 0
z_0_3_6_gc 1
b_0_3_6_gc[0] 9.6636696113267062e-01
b_0_3_6_gc[1] 0.966366961132783
b_0_3_6_gc[2] 9.6636696113269216e-01
b_0_3_6_gc[3] 9.6636696113275056e-01
x_0_3_7_gc 2.0498969405889406e-01
s_0_3_7_gc 0
z_0_3_7_gc 1
b_0_3_7_gc[0] 2.0498969405881873e-01
b_0_3_7_gc[1] 2.0498969405883605e-01
b_0_3_7_gc[2] 2.0498969405885079e-01
b_0_3_7_gc[3] 2.0498969405889406e-01
x_0_3_8_gc 1.3835638817399758e+00
s_0_3_8_gc 0
z_0_3_8_gc 1
b_0_3_8_gc[0] 1.3835638817399318e+00
b_0_3_8_gc[1] 1.3835638817400295e+00
b_0_3_8_gc[2] 1.3835638817401050e+00
b_0_3_8_gc[3] 1.3835638817399758e+00
x_0_3_9_gc 0.205865710973701
s_0_3_9_gc 0
z_0_3_9_gc 1
b_0_3_9_gc[0] 0.205865710973685
b_0_3_9_gc[1] 2.0586571097368278e-01
b_0_3_9_gc[2] 2.0586571097369832e-01
b_0_3_9_gc[3] 0.205865710973701
x_0_3_10_gc 0
s_0_3_10_gc 4.0088875589858830e-01
z_0_3_10_gc 0
b_0_3_10_gc[0] 0
b_0_3_10_gc[1] 0
b_0_3_10_gc[2] 9.8970990144921318e-12
b_0_3_10_gc[3] 0
x_0_3_11_gc 0
s_0_3_11_gc 2.4594732671976116e+00
z_0_3_11_gc 0
b_0_3_11_gc[0] 0
b_0_3_11_gc[1] 0
b_0_3_11_gc[2] 0
b_0_3_11_gc[3] 0
x_0_3_12_gc 1.3125948328524850e+00
s_0_3_12_gc 0
z_0_3_12_gc 1
b_0_3_12_gc[0] 1.3125948328524304e+00
b_0_3_12_gc[1] 1.3125948328524255e+00
b_0_3_12_gc[2] 1.3125948328525125e+00
b_0_3_12_gc[3] 1.3125948328524850e+00
x_0_3_13_gc 1.1341716777533311e+00
s_0_3_13_gc 0
z_0_3_13_gc 1
b_0_3_13_gc[0] 1.1341716777532764e+00
b_0_3_13_gc[1] 1.1341716777532729e+00
b_0_3_13_gc[2] 1.1341716777533253e+00
b_0_3_13_gc[3] 1.1341716777533311e+00
x_0_3_14_gc 0
s_0_3_14_gc 1.2395040970295670e+00
z_0_3_14_gc 0
b_0_3_14_gc[0] 0
b_0_3_14_gc[1] 0
b_0_3_14_gc[2] 0
b_0_3_14_gc[3] 0
x_0_3_15_gc 0
s_0_3_15_gc 3.4668850153682129e-01
z_0_3_15_gc 0
b_0_3_15_gc[0] 0
b_0_3_15_gc[1] 0
b_0_3_15_gc[2] 0
b_0_3_15_gc[3] 0
x_1_0_0_gc 0
s_1_0_0_gc 0
z_1_0_0_gc 1
b_1_0_0_gc[0] 0
b_1_0_0_gc[1] 0
b_1_0_0_gc[2] 0
b_1_0_0_gc[3] 0
x_1_0_1_gc 0
s_1_0_1_gc 1.0063375849638638e+00
z_1_0_1_gc 0
b_1_0_1_gc[0] 0
b_1_0_1_gc[1] 0
b_1_0_1_gc[2] 0
b_1_0_1_gc[3] 0
x_1_0_2_gc 0
s_1_0_2_gc 5.6265848510032623e-01
z_1_0_2_gc 0
b_1_0_2_gc[0] 0
b_1_0_2_gc[1] 0
b_1_0_2_gc[2] 0
b_1_0_2_gc[3] 0
x_1_0_3_gc 0
s_1_0_3_gc 0
z_1_0_3_gc 1
b_1_0_3_gc[0] 0
b_1_0_3_gc[1] 0
b_1_0_3_gc[2] 0
b_1_0_3_gc[3] 0
x_1_0_4_gc 0
s_1_0_4_gc 4.3753360047386114e-01
z_1_0_4_gc 0
b_1_0_4_gc[0] 0
b_1_0_4_gc[1] 0
b_1_0_4_gc[2] 0
b_1_0_4_gc[3] 0
x_1_0_5_gc 0
s_1_0_5_gc 2.0995701861364338e+00
z_1_0_5_gc 0
b_1_0_5_gc[0] 0
b_1_0_5_gc[1] 0
b_1_0_5_gc[2] 0
b_1_0_5_gc[3] 0
x_1_0_6_gc 0
s_1_0_6_gc 0
z_1_0_6_gc 1
b_1_0_6_gc[0] 0
b_1_0_6_gc[1] 0
b_1_0_6_gc[2] 0
b_1_0_6_gc[3] 0
x_1_0_7_gc 0
s_1_0_7_gc 2.3657690418166224e+00
z_1_0_7_gc 0
b_1_0_7_gc[0] 0
b_1_0_7_gc[1] 0
b_1_0_7_gc[2] 0
b_1_0_7_gc[3] 0
x_1_0_8_gc 0
s_1_0_8_gc 1.8685240199279718e-01
z_1_0_8_gc 0
b_1_0_8_gc[0] 0
b_1_0_8_gc[1] 0
b_1_0_8_gc[2] 0
b_1_0_8_gc[3] 0
x_1_0_9_gc 0
s_1_0_9_gc 2.2658690494849287e-01
z_1_0_9_gc 0
b_1_0_9_gc[0] 0
b_1_0_9_gc[1] 0
b_1_0_9_gc[2] 0
b_1_0_9_gc[3] 0
x_1_0_10_gc 0
s_1_0_10_gc 0
z_1_0_10_gc 1
b_1_0_10_gc[0] 0
b_1_0_10_gc[1] 0
b_1_0_10_gc[2] 0
b_1_0_10_gc[3] 0
x_1_0_11_gc 0
s_1_0_11_gc 7.6366001753979784e-01
z_1_0_11_gc 0
b_1_0_11_gc[0] 0
b_1_0_11_gc[1] 0
b_1_0_11_gc[2] 0
b_1_0_11_gc[3] 0
x_1_0_12_gc 0
s_1_0_12_gc 1.9147387826723783e-01
z_1_0_12_gc 0
b_1_0_12_gc[0] 0
b_1_0_12_gc[1] 0
b_1_0_12_gc[2] 0
b_1_0_12_gc[3] 0
x_1_0_13_gc 0
s_1_0_13_gc 0
z_1_0_13_gc 1
b_1_0_13_gc[0] 0
b_1_0_13_gc[1] 0
b_1_0_13_gc[2] 0
b_1_0_13_gc[3] 0
x_1_0_14_gc 0
s_1_0_14_gc 0
z_1_0_14_gc 1
b_1_0_14_gc[0] 0
b_1_0_14_gc[1] 0
b_1_0_14_gc[2] 0
b_1_0_14_gc[3] 0
x_1_0_15_gc 0
s_1_0_15_gc 0
z_1_0_15_gc 1
b_1_0_15_gc[0] 0
b_1_0_15_gc[1] 0
b_1_0_15_gc[2] 0
b_1_0_15_gc[3] 0
x_1_0_16_gc 0
s_1_0_16_gc 0
z_1_0_16_gc 1
b_1_0_16_gc[0] 0
b_1_0_16_gc[1] 0
b_1_0_16_gc[2] 0
b_1_0_16_gc[3] 0
x_1_0_17_gc 0
s_1_0_17_gc 0
z_1_0_17_gc 1
b_1_0_17_gc[0] 0
b_1_0_17_gc[1] 0
b_1_0_17_gc[2] 0
b_1_0_17_gc[3] 0
x_1_0_18_gc 0
s_1_0_18_gc 1.5215051440975458e-11
z_1_0_18_gc 1
b_1_0_18_gc[0] 0
b_1_0_18_gc[1] 0
b_1_0_18_gc[2] 0
b_1_0_18_gc[3] 0
x_1_0_19_gc 0
s_1_0_19_gc 1.7967114340292853e+00
z_1_0_19_gc 0
b_1_0_19_gc[0] 0
b_1_0_19_gc[1] 0
b_1_0_19_gc[2] 0
b_1_0_19_gc[3] 0
x_1_0_20_gc 0
s_1_0_20_gc 0
z_1_0_20_gc 1
b_1_0_20_gc[0] 0
b_1_0_20_gc[1] 0
b_1_0_20_gc[2] 0
b_1_0_20_gc[3] 0
x_1_0_21_gc 0
s_1_0_21_gc 0
z_1_0_21_gc 1
b_1_0_21_gc[0] 0
b_1_0_21_gc[1] 0
b_1_0_21_gc[2] 0
b_1_0_21_gc[3] 0
x_1_0_22_gc 0
s_1_0_22_gc 0
z_1_0_22_gc 1
b_1_0_22_gc[0] 0
b_1_0_22_gc[1] 0
b_1_0_22_gc[2] 0
b_1_0_22_gc[3] 0
x_1_0_23_gc 0
s_1_0_23_gc 2.0799508305695569e+00
z_1_0_23_gc 0
b_1_0_23_gc[0] 0
b_1_0_23_gc[1] 0
b_1_0_23_gc[2] 0
b_1_0_23_gc[3] 0
x_1_0_24_gc 0
s_1_0_24_gc 1.2136855596169847e+00
z_1_0_24_gc 0
b_1_0_24_gc[0] 0
b_1_0_24_gc[1] 0
b_1_0_24_gc[2] 0
b_1_0_24_gc[3] 0
x_1_0_25_gc 0
s_1_0_25_gc 2.0465410924468741e+00
z_1_0_25_gc 0
b_1_0_25_gc[0] 0
b_1_0_25_gc[1] 0
b_1_0_25_gc[2] 0
b_1_0_25_gc[3] 0
x_1_0_26_gc 0
s_1_0_26_gc 0
z_1_0_26_gc 1
b_1_0_26_gc[0] 0
b_1_0_26_gc[1] 0
b_1_0_26_gc[2] 0
b_1_0_26_gc[3] 0
x_1_0_27_gc 0
s_1_0_27_gc 0
z_1_0_27_gc 1
b_1_0_27_gc[0] 0
b_1_0_27_gc[1] 0
b_1_0_27_gc[2] 0
b_1_0_27_gc[3] 0
x_1_0_28_gc 0
s_1_0_28_gc 2.6599525520869582e-01
z_1_0_28_gc 0
b_1_0_28_gc[0] 0
b_1_0_28_gc[1] 0
b_1_0_28_gc[2] 0
b_1_0_28_gc[3] 0
x_1_0_29_gc 0
s_1_0_29_gc 2.3530498385583467e+00
z_1_0_29_gc 0
b_1_0_29_gc[0] 0
b_1_0_29_gc[1] 0
b_1_0_29_gc[2] 0
b_1_0_29_gc[3] 0
x_1_0_30_gc 0
s_1_0_30_gc 0
z_1_0_30_gc 1
b_1_0_30_gc[0] 0
b_1_0_30_gc[1] 0
b_1_0_30_gc[2] 0
b_1_0_30_gc[3] 0
x_1_0_31_gc 0
s_1_0_31_gc 5.3906672306427561e-01
z_1_0_31_gc 0
b_1_0_31_gc[0] 0
b_1_0_31_gc[1] 0
b_1_0_31_gc[2] 0
b_1_0_31_gc[3] 0
x_1_1_0_gc 0
s_1_1_0_gc 0
z_1_1_0_gc 1
b_1_1_0_gc[0] 0
b_1_1_0_gc[1] 0
b_1_1_0_gc[2] 0
b_1_1_0_gc[3] 0
x_1_1_1_gc 0
s_1_1_1_gc 1.0063375849646299e+00
z_1_1_1_gc 0
b_1_1_1_gc[0] 0
b_1_1_1_gc[1] 0
b_1_1_1_gc[2] 0
b_1_1_1_gc[3] 0
x_1_1_2_gc 0
s_1_1_2_gc 5.6265848511514260e-01
z_1_1_2_gc 0
b_1_1_2_gc[0] 0
b_1_1_2_gc[1] 0
b_1_1_2_gc[2] 0
b_1_1_2_gc[3] 0
x_1_1_3_gc 0
s_1_1_3_gc 0
z_1_1_3_gc 1
b_1_1_3_gc[0] 0
b_1_1_3_gc[1] 0
b_1_1_3_gc[2] 0
b_1_1_3_gc[3] 0
x_1_1_4_gc 0
s_1_1_4_gc 4.3753360048619960e-01
z_1_1_4_gc 0
b_1_1_4_gc[0] 0
b_1_1_4_gc[1] 0
b_1_1_4_gc[2] 0
b_1_1_4_gc[3] 0
x_1_1_5_gc 0
s_1_1_5_gc 2.0995701861288558e+00
z_1_1_5_gc 0
b_1_1_5_gc[0] 0
b_1_1_5_gc[1] 0
b_1_1_5_gc[2] 0
b_1_1_5_gc[3] 0
x_1_1_6_gc 0
s_1_1_6_gc 0
z_1_1_6_gc 1
b_1_1_6_gc[0] 0
b_1_1_6_gc[1] 0
b_1_1_6_gc[2] 0
b_1_1_6_gc[3] 0
x_1_1_7_gc 0
s_1_1_7_gc 2.3657690418196022e+00
z_1_1_7_gc 0
b_1_1_7_gc[0] 0
b_1_1_7_gc[1] 0
b_1_1_7_gc[2] 0
b_1_1_7_gc[3] 0
x_1_1_8_gc 0
s_1_1_8_gc 1.8685240199493908e-01
z_1_1_8_gc 0
b_1_1_8_gc[0] 0
b_1_1_8_gc[1] 0
b_1_1_8_gc[2] 0
b_1_1_8_gc[3] 0
x_1_1_9_gc 0
s_1_1_9_gc 2.2658690494509715e-01
z_1_1_9_gc 0
b_1_1_9_gc[0] 0
b_1_1_9_gc[1] 0
b_1_1_9_gc[2] 0
b_1_1_9_gc[3] 0
x_1_1_10_gc 0
s_1_1_10_gc 0
z_1_1_10_gc 1
b_1_1_10_gc[0] 0
b_1_1_10_gc[1] 0
b_1_1_10_gc[2] 0
b_1_1_10_gc[3] 0
x_1_1_11_gc 0
s_1_1_11_gc 7.6366001754057766e-01
z_1_1_11_gc 0
b_1_1_11_gc[0] 0
b_1_1_11_gc[1] 0
b_1_1_11_gc[2] 0
b_1_1_11_gc[3] 0
x_1_1_12_gc 0
s_1_1_12_gc 1.9147387827652240e-01
z_1_1_12_gc 0
b_1_1_12_gc[0] 0
b_1_1_12_gc[1] 0
b_1_1_12_gc[2] 0
b_1_1_12_gc[3] 0
x_1_1_13_gc 0
s_1_1_13_gc 0
z_1_1_13_gc 1
b_1_1_13_gc[0] 0
b_1_1_13_gc[1] 0
b_1_1_13_gc[2] 0
b_1_1_13_gc[3] 0
x_1_1_14_gc 0
s_1_1_14_gc 0
z_1_1_14_gc 1
b_1_1_14_gc[0] 0
b_1_1_14_gc[1] 0
b_1_1_14_gc[2] 0
b_1_1_14_gc[3] 0
x_1_1_15_gc 0
s_1_1_15_gc 0
z_1_1_15_gc 1
b_1_1_15_gc[0] 0
b_1_1_15_gc[1] 0
b_1_1_15_gc[2] 0
b_1_1_15_gc[3] 0
x_1_1_16_gc 0
s_1_1_16_gc 0
z_1_1_16_gc 1
b_1_1_16_gc[0] 0
b_1_1_16_gc[1] 0
b_1_1_16_gc[2] 0
b_1_1_16_gc[3] 0
x_1_1_17_gc 0
s_1_1_17_gc 0
z_1_1_17_gc 1
b_1_1_17_gc[0] 0
b_1_1_17_gc[1] 0
b_1_1_17_gc[2] 0
b_1_1_17_gc[3] 0
x_1_1_18_gc 0
s_1_1_18_gc 0
z_1_1_18_gc 1
b_1_1_18_gc[0] 0
b_1_1_18_gc[1] 0
b_1_1_18_gc[2] 0
b_1_1_18_gc[3] 0
x_1_1_19_gc 0
s_1_1_19_gc 1.7967114340301638e+00
z_1_1_19_gc 0
b_1_1_19_gc[0] 0
b_1_1_19_gc[1] 0
b_1_1_19_gc[2] 0
b_1_1_19_gc[3] 0
x_1_1_20_gc 0
s_1_1_20_gc 0
z_1_1_20_gc 1
b_1_1_20_gc[0] 0
b_1_1_20_gc[1] 0
b_1_1_20_gc[2] 0
b_1_1_20_gc[3] 0
x_1_1_21_gc 0
s_1_1_21_gc 0
z_1_1_21_gc 1
b_1_1_21_gc[0] 0
b_1_1_21_gc[1] 0
b_1_1_21_gc[2] 0
b_1_1_21_gc[3] 0
x_1_1_22_gc 0
s_1_1_22_gc 9.3104413068090253e-12
z_1_1_22_gc 1
b_1_1_22_gc[0] 0
b_1_1_22_gc[1] 0
b_1_1_22_gc[2] 0
b_1_1_22_gc[3] 0
x_1_1_23_gc 0
s_1_1_23_gc 2.0799508305693006e+00
z_1_1_23_gc 0
b_1_1_23_gc[0] 0
b_1_1_23_gc[1] 0
b_1_1_23_gc[2] 0
b_1_1_23_gc[3] 0
x_1_1_24_gc 0
s_1_1_24_gc 1.21368555962849
z_1_1_24_gc 0
b_1_1_24_gc[0] 0
b_1_1_24_gc[1] 0
b_1_1_24_gc[2] 0
b_1_1_24_gc[3] 0
x_1_1_25_gc 0
s_1_1_25_gc 2.0465410924533485e+00
z_1_1_25_gc 0
b_1_1_25_gc[0] 0
b_1_1_25_gc[1] 0
b_1_1_25_gc[2] 0
b_1_1_25_gc[3] 0
x_1_1_26_gc 0
s_1_1_26_gc 5.8423266224849613e-12
z_1_1_26_gc 1
b_1_1_26_gc[0] 0
b_1_1_26_gc[1] 0
b_1_1_26_gc[2] 0
b_1_1_26_gc[3] 0
x_1_1_27_gc 0
s_1_1_27_gc 0
z_1_1_27_gc 1
b_1_1_27_gc[0] 0
b_1_1_27_gc[1] 0
b_1_1_27_gc[2] 0
b_1_1_27_gc[3] 0
x_1_1_28_gc 0
s_1_1_28_gc 2.6599525518874934e-01
z_1_1_28_gc 0
b_1_1_28_gc[0] 0
b_1_1_28_gc[1] 0
b_1_1_28_gc[2] 0
b_1_1_28_gc[3] 0
x_1_1_29_gc 0
s_1_1_29_gc 2.3530498385584080e+00
z_1_1_29_gc 0
b_1_1_29_gc[0] 0
b_1_1_29_gc[1] 0
b_1_1_29_gc[2] 0
b_1_1_29_gc[3] 0
x_1_1_30_gc 0
s_1_1_30_gc 0
z_1_1_30_gc 1
b_1_1_30_gc[0] 0
b_1_1_30_gc[1] 0
b_1_1_30_gc[2] 0
b_1_1_30_gc[3] 0
x_1_1_31_gc 0
s_1_1_31_gc 5.3906672307713732e-01
z_1_1_31_gc 0
b_1_1_31_gc[0] 0
b_1_1_31_gc[1] 0
b_1_1_31_gc[2] 0
b_1_1_31_gc[3] 0
x_1_2_0_gc 0
s_1_2_0_gc 0
z_1_2_0_gc 1
b_1_2_0_gc[0] 0
b_1_2_0_gc[1] 0
b_1_2_0_gc[2] 0
b_1_2_0_gc[3] 0
x_1_2_1_gc 0
s_1_2_1_gc 1.0063375849515777e+00
z_1_2_1_gc 0
b_1_2_1_gc[0] 0
b_1_2_1_gc[1] 0
b_1_2_1_gc[2] 0
b_1_2_1_gc[3] 0
x_1_2_2_gc 0
s_1_2_2_gc 5.6265848509559013e-01
z_1_2_2_gc 0
b_1_2_2_gc[0] 0
b_1_2_2_gc[1] 0
b_1_2_2_gc[2] 0
b_1_2_2_gc[3] 0
x_1_2_3_gc 0
s_1_2_3_gc 0
z_1_2_3_gc 1
b_1_2_3_gc[0] 0
b_1_2_3_gc[1] 0
b_1_2_3_gc[2] 0
b_1_2_3_gc[3] 0
x_1_2_4_gc 0
s_1_2_4_gc 4.3753360047630924e-01
z_1_2_4_gc 0
b_1_2_4_gc[0] 0
b_1_2_4_gc[1] 0
b_1_2_4_gc[2] 0
b_1_2_4_gc[3] 0
x_1_2_5_gc 0
s_1_2_5_gc 2.0995701861065710e+00
z_1_2_5_gc 0
b_1_2_5_gc[0] 0
b_1_2_5_gc[1] 0
b_1_2_5_gc[2] 0
b_1_2_5_gc[3] 0
x_1_2_6_gc 0
s_1_2_6_gc 8.7667650916500861e-12
z_1_2_6_gc 1
b_1_2_6_gc[0] 0
b_1_2_6_gc[1] 0
b_1_2_6_gc[2] 0
b_1_2_6_gc[3] 0
x_1_2_7_gc 0
s_1_2_7_gc 2.3657690418004509e+00
z_1_2_7_gc 0
b_1_2_7_gc[0] 0
b_1_2_7_gc[1] 0
b_1_2_7_gc[2] 0
b_1_2_7_gc[3] 0
x_1_2_8_gc 0
s_1_2_8_gc 1.8685240199496994e-01
z_1_2_8_gc 0
b_1_2_8_gc[0] 0
b_1_2_8_gc[1] 0
b_1_2_8_gc[2] 0
b_1_2_8_gc[3] 0
x_1_2_9_gc 0
s_1_2_9_gc 2.2658690493647488e-01
z_1_2_9_gc 0
b_1_2_9_gc[0] 0
b_1_2_9_gc[1] 0
b_1_2_9_gc[2] 0
b_1_2_9_gc[3] 0
x_1_2_10_gc 0
s_1_2_10_gc 0
z_1_2_10_gc 1
b_1_2_10_gc[0] 0
b_1_2_10_gc[1] 0
b_1_2_10_gc[2] 0
b_1_2_10_gc[3] 0
x_1_2_11_gc 0
s_1_2_11_gc 7.6366001752403689e-01
z_1_2_11_gc 0
b_1_2_11_gc[0] 0
b_1_2_11_gc[1] 0
b_1_2_11_gc[2] 0
b_1_2_11_gc[3] 0
x_1_2_12_gc 0
s_1_2_12_gc 1.9147387827457940e-01
z_1_2_12_gc 0
b_1_2_12_gc[0] 0
b_1_2_12_gc[1] 0
b_1_2_12_gc[2] 0
b_1_2_12_gc[3] 0
x_1_2_13_gc 0
s_1_2_13_gc 0
z_1_2_13_gc 1
b_1_2_13_gc[0] 0
b_1_2_13_gc[1] 0
b_1_2_13_gc[2] 0
b_1_2_13_gc[3] 0
x_1_2_14_gc 0
s_1_2_14_gc 0
z_1_2_14_gc 1
b_1_2_14_gc[0] 0
b_1_2_14_gc[1] 0
b_1_2_14_gc[2] 0
b_1_2_14_gc[3] 0
x_1_2_15_gc 0
s_1_2_15_gc 0
z_1_2_15_gc 1
b_1_2_15_gc[0] 0
b_1_2_15_gc[1] 0
b_1_2_15_gc[2] 0
b_1_2_15_gc[3] 0
x_1_2_16_gc 0
s_1_2_16_gc 0
z_1_2_16_gc 1
b_1_2_16_gc[0] 0
b_1_2_16_gc[1] 0
b_1_2_16_gc[2] 0
b_1_2_16_gc[3] 0
x_1_2_17_gc 0
s_1_2_17_gc 0
z_1_2_17_gc 1
b_1_2_17_gc[0] 0
b_1_2_17_gc[1] 0
b_1_2_17_gc[2] 0
b_1_2_17_gc[3] 0
x_1_2_18_gc 0
s_1_2_18_gc 3.9941383533914632e-12
z_1_2_18_gc 1
b_1_2_18_gc[0] 0
b_1_2_18_gc[1] 0
b_1_2_18_gc[2] 0
b_1_2_18_gc[3] 0
x_1_2_19_gc 0
s_1_2_19_gc 1.7967114340192998e+00
z_1_2_19_gc 0
b_1_2_19_gc[0] 0
b_1_2_19_gc[1] 0
b_1_2_19_gc[2] 0
b_1_2_19_gc[3] 0
x_1_2_20_gc 0
s_1_2_20_gc 0
z_1_2_20_gc 1
b_1_2_20_gc[0] 0
b_1_2_20_gc[1] 0
b_1_2_20_gc[2] 0
b_1_2_20_gc[3] 0
x_1_2_21_gc 0
s_1_2_21_gc 0
z_1_2_21_gc 1
b_1_2_21_gc[0] 0
b_1_2_21_gc[1] 0
b_1_2_21_gc[2] 0
b_1_2_21_gc[3] 0
x_1_2_22_gc 0
s_1_2_22_gc 0
z_1_2_22_gc 1
b_1_2_22_gc[0] 0
b_1_2_22_gc[1] 0
b_1_2_22_gc[2] 0
b_1_2_22_gc[3] 0
x_1_2_23_gc 0
s_1_2_23_gc 2.0799508305694281e+00
z_1_2_23_gc 0
b_1_2_23_gc[0] 0
b_1_2_23_gc[1] 0
b_1_2_23_gc[2] 0
b_1_2_23_gc[3] 0
x_1_2_24_gc 0
s_1_2_24_gc 1.2136855596034926e+00
z_1_2_24_gc 0
b_1_2_24_gc[0] 0
b_1_2_24_gc[1] 0
b_1_2_24_gc[2] 0
b_1_2_24_gc[3] 0
x_1_2_25_gc 0
s_1_2_25_gc 2.0465410924622978e+00
z_1_2_25_gc 0
b_1_2_25_gc[0] 0
b_1_2_25_gc[1] 0
b_1_2_25_gc[2] 0
b_1_2_25_gc[3] 0
x_1_2_26_gc 0
s_1_2_26_gc 0
z_1_2_26_gc 1
b_1_2_26_gc[0] 0
b_1_2_26_gc[1] 0
b_1_2_26_gc[2] 0
b_1_2_26_gc[3] 0
x_1_2_27_gc 0
s_1_2_27_gc 0
z_1_2_27_gc 1
b_1_2_27_gc[0] 0
b_1_2_27_gc[1] 0
b_1_2_27_gc[2] 0
b_1_2_27_gc[3] 0
x_1_2_28_gc 0
s_1_2_28_gc 2.6599525520161921e-01
z_1_2_28_gc 0
b_1_2_28_gc[0] 0
b_1_2_28_gc[1] 0
b_1_2_28_gc[2] 0
b_1_2_28_gc[3] 0
x_1_2_29_gc 0
s_1_2_29_gc 2.3530498385584249e+00
z_1_2_29_gc 0
b_1_2_29_gc[0] 0
b_1_2_29_gc[1] 0
b_1_2_29_gc[2] 0
b_1_2_29_gc[3] 0
x_1_2_30_gc 0
s_1_2_30_gc 0
z_1_2_30_gc 1
b_1_2_30_gc[0] 0
b_1_2_30_gc[1] 0
b_1_2_30_gc[2] 0
b_1_2_30_gc[3] 0
x_1_2_31_gc 0
s_1_2_31_gc 5.3906672307706982e-01
z_1_2_31_gc 0
b_1_2_31_gc[0] 0
b_1_2_31_gc[1] 0
b_1_2_31_gc[2] 0
b_1_2_31_gc[3] 0
x_1_3_0_gc 0
s_1_3_0_gc 0
z_1_3_0_gc 1
b_1_3_0_gc[0] 0
b_1_3_0_gc[1] 0
b_1_3_0_gc[2] 0
b_1_3_0_gc[3] 0
x_1_3_1_gc 0
s_1_3_1_gc 1.0063375849617948e+00
z_1_3_1_gc 0
b_1_3_1_gc[0] 0
b_1_3_1_gc[1] 0
b_1_3_1_gc[2] 0
b_1_3_1_gc[3] 0
x_1_3_2_gc 0
s_1_3_2_gc 5.6265848509992411e-01
z_1_3_2_gc 0
b_1_3_2_gc[0] 0
b_1_3_2_gc[1] 0
b_1_3_2_gc[2] 0
b_1_3_2_gc[3] 0
x_1_3_3_gc 0
s_1_3_3_gc 0
z_1_3_3_gc 1
b_1_3_3_gc[0] 0
b_1_3_3_gc[1] 0
b_1_3_3_gc[2] 0
b_1_3_3_gc[3] 0
x_1_3_4_gc 0
s_1_3_4_gc 4.3753360047444090e-01
z_1_3_4_gc 0
b_1_3_4_gc[0] 0
b_1_3_4_gc[1] 0
b_1_3_4_gc[2] 0
b_1_3_4_gc[3] 0
x_1_3_5_gc 0
s_1_3_5_gc 2.0995701861317753e+00
z_1_3_5_gc 0
b_1_3_5_gc[0] 0
b_1_3_5_gc[1] 0
b_1_3_5_gc[2] 0
b_1_3_5_gc[3] 0
x_1_3_6_gc 0
s_1_3_6_gc 0
z_1_3_6_gc 1
b_1_3_6_gc[0] 0
b_1_3_6_gc[1] 0
b_1_3_6_gc[2] 0
b_1_3_6_gc[3] 0
x_1_3_7_gc 0
s_1_3_7_gc 2.3657690418181425e+00
z_1_3_7_gc 0
b_1_3_7_gc[0] 0
b_1_3_7_gc[1] 0
b_1_3_7_gc[2] 0
b_1_3_7_gc[3] 0
x_1_3_8_gc 0
s_1_3_8_gc 1.8685240199499453e-01
z_1_3_8_gc 0
b_1_3_8_gc[0] 0
b_1_3_8_gc[1] 0
b_1_3_8_gc[2] 0
b_1_3_8_gc[3] 0
x_1_3_9_gc 0
s_1_3_9_gc 2.2658690494552275e-01
z_1_3_9_gc 0
b_1_3_9_gc[0] 0
b_1_3_9_gc[1] 0
b_1_3_9_gc[2] 0
b_1_3_9_gc[3] 0
x_1_3_10_gc 0
s_1_3_10_gc 0
z_1_3_10_gc 1
b_1_3_10_gc[0] 0
b_1_3_10_gc[1] 0
b_1_3_10_gc[2] 0
b_1_3_10_gc[3] 0
x_1_3_11_gc 0
s_1_3_11_gc 7.6366001754164148e-01
z_1_3_11_gc 0
b_1_3_11_gc[0] 0
b_1_3_11_gc[1] 0
b_1_3_11_gc[2] 0
b_1_3_11_gc[3] 0
x_1_3_12_gc 0
s_1_3_12_gc 1.9147387827067405e-01
z_1_3_12_gc 0
b_1_3_12_gc[0] 0
b_1_3_12_gc[1] 0
b_1_3_12_gc[2] 0
b_1_3_12_gc[3] 0
x_1_3_13_gc 0
s_1_3_13_gc 0
z_1_3_13_gc 1
b_1_3_13_gc[0] 0
b_1_3_13_gc[1] 0
b_1_3_13_gc[2] 0
b_1_3_13_gc[3] 0
x_1_3_14_gc 0
s_1_3_14_gc 0
z_1_3_14_gc 1
b_1_3_14_gc[0] 0
b_1_3_14_gc[1] 0
b_1_3_14_gc[2] 0
b_1_3_14_gc[3] 0
x_1_3_15_gc 0
s_1_3_15_gc 0
z_1_3_15_gc 1
b_1_3_15_gc[0] 0
b_1_3_15_gc[1] 0
b_1_3_15_gc[2] 0
b_1_3_15_gc[3] 0
x_1_3_16_gc 0
s_1_3_16_gc 0
z_1_3_16_gc 1
b_1_3_16_gc[0] 0
b_1_3_16_gc[1] 0
b_1_3_16_gc[2] 0
b_1_3_16_gc[3] 0
x_1_3_17_gc 0
s_1_3_17_gc 0
z_1_3_17_gc 1
b_1_3_17_gc[0] 0
b_1_3_17_gc[1] 0
b_1_3_17_gc[2] 0
b_1_3_17_gc[3] 0
x_1_3_18_gc 0
s_1_3_18_gc 1.0145190243449065e-11
z_1_3_18_gc 1
b_1_3_18_gc[0] 0
b_1_3_18_gc[1] 0
b_1_3_18_gc[2] 0
b_1_3_18_gc[3] 0
x_1_3_19_gc 0
s_1_3_19_gc 1.7967114340308288e+00
z_1_3_19_gc 0
b_1_3_19_gc[0] 0
b_1_3_19_gc[1] 0
b_1_3_19_gc[2] 0
b_1_3_19_gc[3] 0
x_1_3_20_gc 0
s_1_3_20_gc 0
z_1_3_20_gc 1
b_1_3_20_gc[0] 0
b_1_3_20_gc[1] 0
b_1_3_20_gc[2] 0
b_1_3_20_gc[3] 0
x_1_3_21_gc 0
s_1_3_21_gc 0
z_1_3_21_gc 1
b_1_3_21_gc[0] 0
b_1_3_21_gc[1] 0
b_1_3_21_gc[2] 0
b_1_3_21_gc[3] 0
x_1_3_22_gc 0
s_1_3_22_gc 0
z_1_3_22_gc 1
b_1_3_22_gc[0] 0
b_1_3_22_gc[1] 0
b_1_3_22_gc[2] 0
b_1_3_22_gc[3] 0
x_1_3_23_gc 0
s_1_3_23_gc 2.0799508305693717e+00
z_1_3_23_gc 0
b_1_3_23_gc[0] 0
b_1_3_23_gc[1] 0
b_1_3_23_gc[2] 0
b_1_3_23_gc[3] 0
x_1_3_24_gc 0
s_1_3_24_gc 1.2136855596153893e+00
z_1_3_24_gc 0
b_1_3_24_gc[0] 0
b_1_3_24_gc[1] 0
b_1_3_24_gc[2] 0
b_1_3_24_gc[3] 0
x_1_3_25_gc 0
s_1_3_25_gc 2.0465410924504597e+00
z_1_3_25_gc 0
b_1_3_25_gc[0] 0
b_1_3_25_gc[1] 0
b_1_3_25_gc[2] 0
b_1_3_25_gc[3] 0
x_1_3_26_gc 0
s_1_3_26_gc 0
z_1_3_26_gc 1
b_1_3_26_gc[0] 0
b_1_3_26_gc[1] 0
b_1_3_26_gc[2] 0
b_1_3_26_gc[3] 0
x_1_3_27_gc 0
s_1_3_27_gc 0
z_1_3_27_gc 1
b_1_3_27_gc[0] 0
b_1_3_27_gc[1] 0
b_1_3_27_gc[2] 0
b_1_3_27_gc[3] 0
x_1_3_28_gc 0
s_1_3_28_gc 2.6599525520602330e-01
z_1_3_28_gc 0
b_1_3_28_gc[0] 0
b_1_3_28_gc[1] 0
b_1_3_28_gc[2] 0
b_1_3_28_gc[3] 0
x_1_3_29_gc 0
s_1_3_29_gc 2.3530498385584115e+00
z_1_3_29_gc 0
b_1_3_29_gc[0] 0
b_1_3_29_gc[1] 0
b_1_3_29_gc[2] 0
b_1_3_29_gc[3] 0
x_1_3_30_gc 0
s_1_3_30_gc 0
z_1_3_30_gc 1
b_1_3_30_gc[0] 0
b_1_3_30_gc[1] 0
b_1_3_30_gc[2] 0
b_1_3_30_gc[3] 0
x_1_3_31_gc 0
s_1_3_31_gc 5.3906672306954917e-01
z_1_3_31_gc 0
b_1_3_31_gc[0] 0
b_1_3_31_gc[1] 0
b_1_3_31_gc[2] 0
b_1_3_31_gc[3] 0
x_ann_zero[0] 3.2981656990368036e+00
x_ann_zero[1] 0
x_ann_zero[2] 0
x_ann_zero[3] 1.1437132270896038e+01
x_ann_zero[4] 0
x_ann_zero[5] 0
x_ann_zero[6] 1.1712369648273366e+00
x_ann_zero[7] 0
x_ann_zero[8] 2.3764424601592263e-11
x_ann_zero[9] 0
x_ann_zero[10] 9.8551560646433656e-01
x_ann_zero[11] 0
x_ann_zero[12] 0
x_ann_zero[13] 2.5612288270574783e+00
x_ann_zero[14] 1.1266342320995427e+01
x_ann_zero[15] 3.9896560915433960e-01
x_ann_zero[16] 1.1384628538817266e+01
x_ann_zero[17] 6.3205170661690460e+00
x_ann_zero[18] 4.6050447692189583e-01
x_ann_zero[19] 0
x_ann_zero[20] 1.2064000230683044e+01
x_ann_zero[21] 6.44254796776883
x_ann_zero[22] 1.2826876714286135e+00
x_ann_zero[23] 0
x_ann_zero[24] 0
x_ann_zero[25] 0
x_ann_zero[26] 6.2178842261132039e-01
x_ann_zero[27] 4.9693399900252757e+00
x_ann_zero[28] 0
x_ann_zero[29] 0
x_ann_zero[30] 8.1261769330222542e+00
x_ann_zero[31] 0
y 2.1658410628243567e+00
x_1_0_0 0
s_1_0_0 2.6872223517792557e+00
z_1_0_0 0
x_1_1_0 0
s_1_1_0 1.3856170252241791e+00
z_1_1_0 0
x_1_2_0 0
s_1_2_0 7.3532793849067035e+00
z_1_2_0 0
x_1_3_0 1.3243077090035780e+00
s_1_3_0 2.3266216824615888e-11
z_1_3_0 1
x_1_4_0 0
s_1_4_0 1.9046847137687564e+00
z_1_4_0 0
x_1_5_0 0
s_1_5_0 8.36037964292581
z_1_5_0 0
x_1_6_0 0
s_1_6_0 1.9753840555560456e+00
z_1_6_0 0
x_1_7_0 0
s_1_7_0 1.6916420504652663e-01
z_1_7_0 0
x_1_8_0 3.7343908736149550e-01
s_1_8_0 0
z_1_8_0 1
x_1_9_0 1.8473282999517959e+00
s_1_9_0 0
z_1_9_0 1
x_1_10_0 5.0436121997711880e-01
s_1_10_0 2.0725939188794053e-11
z_1_10_0 1
x_1_11_0 9.8155466448936739e+00
s_1_11_0 0
z_1_11_0 1
x_1_12_0 0
s_1_12_0 1.8815182758643412e+00
z_1_12_0 0
x_1_13_0 4.1625803579563153e-01
s_1_13_0 0
z_1_13_0 1
x_1_14_0 0
s_1_14_0 1.2036424757261482e-01
z_1_14_0 0
x_1_15_0 9.9990196705351462e+00
s_1_15_0 0
z_1_15_0 1
